(set-option :print-success false)
(set-logic QF_UF)
(declare-sort x88 0)
(declare-sort x153 0)
(declare-fun x148 () x153)
(declare-fun x97 (x153 x153) x153)
(declare-fun x40 () x153)
(declare-fun x54 () x153)
(declare-fun x71 () x153)
(declare-fun x94 () x153)
(assert (and (or (= (x97 x148 (x97 x148 x148)) x148) (or (or (or (= (x97 x71 (x97 x148 x71)) x148) (= (x97 x54 (x97 x148 x54)) x148)) (= (x97 x40 (x97 x148 x40)) x148)) (= (x97 x94 (x97 x148 x94)) x148))) (and (and (and (or (= (x97 x148 (x97 x71 x148)) x71) (or (= x71 (x97 x94 (x97 x71 x94))) (or (= (x97 x40 (x97 x71 x40)) x71) (or (= x71 (x97 x54 (x97 x71 x54))) (= x71 (x97 x71 (x97 x71 x71))))))) (or (or (or (or (= x54 (x97 x54 (x97 x54 x54))) (= (x97 x71 (x97 x54 x71)) x54)) (= (x97 x40 (x97 x54 x40)) x54)) (= (x97 x94 (x97 x54 x94)) x54)) (= (x97 x148 (x97 x54 x148)) x54))) (or (or (= x40 (x97 x94 (x97 x40 x94))) (or (or (= x40 (x97 x71 (x97 x40 x71))) (= (x97 x54 (x97 x40 x54)) x40)) (= (x97 x40 (x97 x40 x40)) x40))) (= x40 (x97 x148 (x97 x40 x148))))) (or (= x94 (x97 x148 (x97 x94 x148))) (or (= x94 (x97 x94 (x97 x94 x94))) (or (= (x97 x40 (x97 x94 x40)) x94) (or (= x94 (x97 x54 (x97 x94 x54))) (= (x97 x71 (x97 x94 x71)) x94))))))))
(assert (let ((x34 (x97 x94 x148)) (x10 (x97 x54 x40)) (x123 (x97 x54 x94)) (x35 (x97 x148 x54)) (x101 (x97 x40 x94)) (x72 (x97 x148 x94)) (x46 (x97 x71 x71)) (x62 (x97 x71 x148)) (x7 (x97 x40 x54)) (x124 (x97 x40 x40)) (x55 (x97 x94 x94)) (x30 (x97 x148 x40)) (x145 (x97 x40 x71)) (x82 (x97 x71 x94)) (x105 (x97 x148 x71)) (x85 (x97 x54 x54)) (x6 (x97 x94 x71)) (x140 (x97 x54 x148)) (x52 (x97 x40 x148)) (x158 (x97 x71 x40)) (x20 (x97 x94 x40)) (x119 (x97 x54 x71)) (x118 (x97 x148 x148)) (x110 (x97 x94 x54)) (x53 (x97 x71 x54))) (or (or (and (and (not (= x94 (x97 x55 x55))) (and (not (= (x97 x20 x20) x40)) (and (not (= x71 (x97 x6 x6))) (not (= x54 (x97 x110 x110)))))) (not (= x148 (x97 x34 x34)))) (or (or (and (and (and (not (= (x97 x158 x158) x40)) (and (not (= x71 (x97 x46 x46))) (not (= x54 (x97 x53 x53))))) (not (= (x97 x82 x82) x94))) (not (= x148 (x97 x62 x62)))) (and (and (and (and (not (= (x97 x85 x85) x54)) (not (= (x97 x119 x119) x71))) (not (= (x97 x10 x10) x40))) (not (= x94 (x97 x123 x123)))) (not (= x148 (x97 x140 x140))))) (and (not (= (x97 x52 x52) x148)) (and (not (= (x97 x101 x101) x94)) (and (not (= (x97 x124 x124) x40)) (and (not (= x71 (x97 x145 x145))) (not (= x54 (x97 x7 x7))))))))) (and (and (and (not (= (x97 x30 x30) x40)) (and (not (= x71 (x97 x105 x105))) (not (= x54 (x97 x35 x35))))) (not (= x94 (x97 x72 x72)))) (not (= x148 (x97 x118 x118)))))))
(assert (let ((x45 (x97 x148 x94)) (x72 (x97 x40 x148)) (x124 (x97 x54 x94)) (x74 (x97 x94 x40)) (x55 (x97 x40 x54)) (x19 (x97 x148 x54)) (x85 (x97 x54 x71)) (x53 (x97 x71 x54)) (x136 (x97 x148 x71)) (x128 (x97 x94 x54)) (x101 (x97 x54 x148)) (x14 (x97 x94 x148)) (x118 (x97 x94 x71)) (x46 (= x71 (x97 x71 x71))) (x30 (x97 x40 x94)) (x7 (x97 x54 x40)) (x119 (x97 x71 x148)) (x62 (x97 x71 x94)) (x82 (x97 x71 x40)) (x52 (x97 x40 x71)) (x33 (x97 x148 x40))) (let ((x35 (= (x97 x40 x40) x40)) (x27 (= x148 (x97 x148 x148))) (x75 (= x71 x53)) (x66 (= x62 x71)) (x140 (= x54 (x97 x54 x54))) (x16 (= x54 x124)) (x41 (= x94 x14)) (x86 (= x94 x118)) (x8 (= x40 x52)) (x4 (= x30 x40)) (x127 (= x71 x82)) (x105 (= x40 x7)) (x48 (= x74 x94)) (x111 (= x14 x148)) (x31 (= (x97 x94 x94) x94)) (x129 (not x46)) (x47 (= x148 x119)) (x79 (= x136 x148)) (x60 (= x148 x45)) (x123 (= x54 x53)) (x81 (= x30 x94)) (x10 (= x71 x85)) (x51 (= x72 x40)) (x78 (= x54 x7)) (x141 (= x71 x118)) (x131 (= x72 x148)) (x65 (= x54 x128)) (x106 (= x94 x62)) (x70 (= x128 x94)) (x13 (= x19 x148)) (x150 (= x136 x71)) (x6 (= x71 x52)) (x57 (= x40 x74)) (x102 (= x19 x54)) (x110 (= x54 x55)) (x15 (= x33 x40)) (x138 (= x54 x101)) (x91 (= x85 x54)) (x89 (= x148 x101)) (x64 (= x40 x55)) (x44 (= x124 x94)) (x108 (= x148 x33)) (x63 (= x71 x119)) (x20 (= x40 x82)) (x132 (= x94 x45))) (let ((x158 (and (and (and (and x129 (not x123)) (not x20)) (not x106)) (not x47))) (x3 (not x35)) (x24 (not x31)) (x155 (not x27)) (x122 (not x140))) (let ((x115 (and (and (not x70) (and (not x64) (and (not x75) x122))) (not x13))) (x146 (and (and (and (not x57) (and (not x141) (not x65))) x24) (not x111))) (x145 (and (and (not x44) (and (and (not x10) x122) (not x105))) (not x89))) (x37 (and (not x79) (and (not x86) (and (not x8) (and x129 (not x91)))))) (x76 (and (and (not x48) (and (and (not x78) (not x127)) x3)) (not x108))) (x50 (and x155 (and (and (not x51) (and (not x138) (not x63))) (not x41)))) (x5 (and x155 (and (not x132) (and (not x15) (and (not x102) (not x150)))))) (x34 (and (and (and x3 (and (not x110) (not x6))) (not x81)) (not x131))) (x120 (and (not x60) (and (and (and (not x16) (not x66)) (not x4)) x24)))) (and (or (or (or (or (or (or (or (or (and x46 (and x158 x46)) (and x75 (and x10 x158))) (and (and x158 x6) x127)) (and (and x158 x141) x66)) (and x63 (and x158 x150))) (or (and (and x145 x102) x138) (or (and (and x65 x145) x16) (or (or (and x140 (and x145 x140)) (and (and x123 x145) x91)) (and x78 (and x145 x110)))))) (or (or (or (or (and x8 (and x20 x34)) (and x64 (and x105 x34))) (and x35 (and x34 x35))) (and x4 (and x34 x57))) (and x51 (and x34 x15)))) (or (or (and x31 (and x31 x146)) (or (or (and (and x44 x146) x70) (and x86 (and x146 x106))) (and (and x81 x146) x48))) (and x41 (and x146 x132)))) (or (or (or (and (and x5 x131) x108) (or (and x13 (and x5 x89)) (and (and x47 x5) x79))) (and (and x5 x111) x60)) (and (and x27 x5) x27))) (or (or (or (or (or (and (and x50 x47) x79) (and x13 (and x50 x89))) (and (and x50 x131) x108)) (and x60 (and x111 x50))) (and (and x27 x50) x27)) (or (or (or (or (or (or (and x78 (and x110 x115)) (or (and x140 (and x140 x115)) (and (and x115 x123) x91))) (and x16 (and x115 x65))) (and x138 (and x102 x115))) (or (and (and x150 x37) x63) (or (or (or (and x46 (and x46 x37)) (and x75 (and x37 x10))) (and x127 (and x6 x37))) (and (and x141 x37) x66)))) (or (and (and x15 x76) x51) (or (and x4 (and x76 x57)) (or (or (and (and x20 x76) x8) (and x64 (and x76 x105))) (and (and x76 x35) x35))))) (or (and (and x120 x132) x41) (or (and x31 (and x31 x120)) (or (or (and x70 (and x44 x120)) (and (and x120 x106) x86)) (and x48 (and x81 x120)))))))))))))
(assert (and (and (or (not (= x148 (x97 (x97 x148 x94) x94))) (or (not (= (x97 (x97 x94 x94) x94) x94)) (or (or (not (= (x97 (x97 x54 x94) x94) x54)) (not (= (x97 (x97 x71 x94) x94) x71))) (not (= x40 (x97 (x97 x40 x94) x94)))))) (and (or (or (or (or (not (= x54 (x97 (x97 x54 x40) x40))) (not (= x71 (x97 (x97 x71 x40) x40)))) (not (= (x97 (x97 x40 x40) x40) x40))) (not (= (x97 (x97 x94 x40) x40) x94))) (not (= x148 (x97 (x97 x148 x40) x40)))) (and (or (not (= (x97 (x97 x148 x54) x54) x148)) (or (or (not (= x40 (x97 (x97 x40 x54) x54))) (or (not (= (x97 (x97 x71 x54) x54) x71)) (not (= (x97 (x97 x54 x54) x54) x54)))) (not (= (x97 (x97 x94 x54) x54) x94)))) (or (not (= (x97 (x97 x148 x71) x71) x148)) (or (or (not (= x40 (x97 (x97 x40 x71) x71))) (or (not (= x54 (x97 (x97 x54 x71) x71))) (not (= (x97 (x97 x71 x71) x71) x71)))) (not (= (x97 (x97 x94 x71) x71) x94))))))) (or (or (or (not (= x40 (x97 (x97 x40 x148) x148))) (or (not (= (x97 (x97 x54 x148) x148) x54)) (not (= (x97 (x97 x71 x148) x148) x71)))) (not (= (x97 (x97 x94 x148) x148) x94))) (not (= (x97 (x97 x148 x148) x148) x148)))))
(assert (let ((x150 (x97 x54 x54)) (x19 (x97 x94 x54)) (x8 (x97 x94 x40)) (x57 (x97 x71 x54)) (x141 (x97 x71 x71)) (x115 (x97 x148 x94)) (x146 (x97 x40 x71)) (x47 (x97 x54 x94)) (x91 (x97 x40 x94)) (x31 (x97 x148 x71)) (x86 (x97 x40 x148)) (x5 (x97 x54 x148)) (x79 (x97 x148 x40)) (x27 (x97 x40 x40)) (x51 (x97 x148 x148)) (x13 (x97 x94 x148)) (x128 (x97 x71 x40)) (x15 (x97 x54 x40)) (x64 (x97 x94 x94)) (x132 (x97 x40 x54)) (x44 (x97 x71 x94)) (x106 (x97 x54 x71)) (x89 (x97 x148 x54)) (x81 (x97 x71 x148)) (x74 (x97 x94 x71))) (let ((x62 (not (= x71 x146))) (x124 (not (= x71 x47))) (x92 (not (= x31 x148))) (x111 (not (= x54 x15))) (x14 (not (= x106 x54))) (x77 (not (= x40 x79))) (x53 (not (= x106 x71))) (x30 (not (= x71 x115))) (x101 (not (= x8 x71))) (x152 (not (= x44 x94))) (x102 (not (= x150 x54))) (x80 (not (= x40 x51))) (x12 (not (= x79 x94))) (x16 (not (= x54 x81))) (x105 (not (= x79 x71))) (x122 (not (= x91 x54))) (x75 (not (= x54 x74))) (x35 (not (= x86 x71))) (x25 (not (= x15 x40))) (x65 (not (= x54 x141))) (x36 (not (= x40 x81))) (x28 (not (= x40 x8))) (x117 (not (= x128 x94))) (x149 (not (= x150 x94))) (x143 (not (= x115 x148))) (x7 (not (= x19 x71))) (x70 (not (= x54 x64))) (x50 (not (= x146 x40))) (x59 (not (= x27 x40))) (x95 (not (= x8 x94))) (x156 (not (= x141 x148))) (x10 (not (= x15 x71))) (x46 (not (= x141 x71))) (x110 (not (= x71 x31))) (x83 (not (= x19 x40))) (x125 (not (= x40 x5))) (x23 (not (= x40 x86))) (x63 (not (= x54 x8))) (x60 (not (= x141 x40))) (x29 (not (= x150 x148))) (x120 (not (= x106 x40))) (x87 (not (= x141 x94))) (x145 (not (= x71 x44))) (x49 (not (= x44 x40))) (x139 (not (= x94 x89))) (x116 (not (= x74 x148))) (x123 (not (= x27 x71))) (x104 (not (= x94 x5))) (x138 (not (= x89 x54))) (x24 (not (= x51 x54))) (x41 (not (= x40 x57))) (x157 (not (= x13 x94))) (x39 (not (= x81 x148))) (x42 (not (= x15 x94))) (x118 (not (= x71 x51))) (x99 (not (= x13 x40))) (x114 (not (= x128 x148))) (x107 (not (= x40 x64))) (x127 (not (= x19 x54))) (x151 (not (= x40 x132))) (x78 (not (= x54 x31))) (x66 (not (= x54 x47))) (x103 (not (= x94 x132))) (x58 (not (= x148 x106))) (x68 (not (= x40 x31))) (x45 (not (= x132 x54))) (x55 (not (= x71 x89))) (x93 (not (= x44 x148))) (x6 (not (= x71 x64))) (x155 (not (= x40 x150))) (x130 (not (= x148 x5))) (x21 (not (= x94 x27))) (x98 (not (= x148 x15))) (x154 (not (= x132 x148))) (x18 (not (= x19 x148))) (x135 (not (= x148 x51))) (x9 (not (= x148 x57))) (x144 (not (= x94 x51))) (x119 (not (= x128 x71))) (x38 (not (= x94 x115))) (x126 (not (= x74 x94))) (x84 (not (= x94 x91))) (x112 (not (= x89 x148))) (x142 (not (= x115 x40))) (x26 (not (= x148 x146))) (x17 (not (= x31 x94))) (x108 (not (= x54 x86))) (x1 (not (= x47 x94))) (x11 (not (= x86 x148))) (x129 (not (= x54 x27))) (x69 (not (= x94 x57))) (x3 (not (= x54 x5))) (x20 (not (= x71 x81))) (x43 (not (= x128 x40))) (x73 (not (= x40 x89))) (x131 (not (= x128 x54))) (x37 (not (= x44 x54))) (x96 (not (= x64 x94))) (x147 (not (= x148 x79))) (x52 (not (= x91 x71))) (x76 (not (= x115 x54))) (x56 (not (= x40 x91))) (x33 (not (= x146 x54))) (x67 (not (= x40 x74))) (x134 (not (= x8 x148))) (x22 (not (= x81 x94))) (x140 (not (= x71 x74))) (x72 (not (= x71 x13))) (x133 (not (= x94 x19))) (x32 (not (= x148 x27))) (x48 (not (= x54 x79))) (x113 (not (= x47 x148))) (x34 (not (= x71 x5))) (x136 (not (= x54 x57))) (x90 (not (= x47 x40))) (x158 (not (= x71 x57))) (x61 (not (= x86 x94))) (x4 (not (= x54 x13))) (x85 (not (= x71 x132))) (x82 (not (= x71 x150))) (x137 (not (= x148 x64))) (x100 (not (= x13 x148))) (x121 (not (= x94 x146))) (x2 (not (= x91 x148))) (x109 (not (= x94 x106)))) (or (and (and (and (or x143 x100) (and (or x147 x11) (and (or x92 x39) (or x130 x112)))) (or x135 x135)) (and (and (and (and (or x2 x134) (and (and (or x26 x114) (or x154 x98)) (or x32 x32))) (or x147 x11)) (and (and (or x92 x39) (and (and (and (or x156 x156) (or x9 x58)) (or x26 x114)) (or x116 x93))) (and (or x130 x112) (and (or x113 x18) (and (and (or x58 x9) (or x29 x29)) (or x98 x154)))))) (and (or x143 x100) (and (or x137 x137) (and (and (or x113 x18) (or x93 x116)) (or x134 x2)))))) (or (or (or (and (and (and (or x72 x30) (and (and (or x101 x52) (and (or x7 x124) (or x145 x140))) (or x6 x6))) (and (and (and (or x20 x110) (and (and (and (or x46 x46) (or x53 x158)) (or x62 x119)) (or x140 x145))) (and (and (and (or x85 x10) (and (or x82 x82) (or x158 x53))) (or x124 x7)) (or x55 x34))) (and (and (or x101 x52) (and (and (or x85 x10) (or x62 x119)) (or x123 x123))) (or x35 x105)))) (and (or x118 x118) (and (and (or x35 x105) (and (or x110 x20) (or x55 x34))) (or x72 x30)))) (and (and (and (and (and (and (or x75 x37) (and (and (or x65 x65) (or x14 x136)) (or x131 x33))) (or x16 x78)) (and (and (and (and (or x102 x102) (or x136 x14)) (or x45 x111)) (or x66 x127)) (or x138 x3))) (and (or x48 x108) (and (and (or x129 x129) (and (or x33 x131) (or x45 x111))) (or x63 x122)))) (and (or x4 x76) (and (and (or x63 x122) (and (or x66 x127) (or x75 x37))) (or x70 x70)))) (and (or x24 x24) (and (and (or x48 x108) (and (or x138 x3) (or x78 x16))) (or x4 x76))))) (and (and (and (or x142 x99) (and (or x23 x77) (and (or x36 x68) (or x73 x125)))) (or x80 x80)) (and (and (and (or x23 x77) (and (and (and (or x25 x151) (or x50 x43)) (or x59 x59)) (or x56 x28))) (and (and (or x68 x36) (and (and (or x43 x50) (and (or x120 x41) (or x60 x60))) (or x49 x67))) (and (or x125 x73) (and (or x90 x83) (and (and (or x155 x155) (or x120 x41)) (or x25 x151)))))) (and (or x142 x99) (and (and (and (or x49 x67) (or x90 x83)) (or x28 x56)) (or x107 x107)))))) (and (and (and (or x38 x157) (and (or x96 x96) (and (or x84 x95) (and (or x1 x133) (or x152 x126))))) (and (and (and (and (or x133 x1) (and (and (or x109 x69) (or x149 x149)) (or x42 x103))) (or x104 x139)) (and (and (or x126 x152) (and (and (or x69 x109) (or x87 x87)) (or x121 x117))) (or x17 x22))) (and (or x12 x61) (and (or x95 x84) (and (or x21 x21) (and (or x117 x121) (or x103 x42))))))) (and (and (and (or x61 x12) (and (or x104 x139) (or x22 x17))) (or x157 x38)) (or x144 x144))))))))
(assert (and (or (or (or (or (not (= (x97 x148 (x97 x148 x54)) x54)) (not (= x71 (x97 x148 (x97 x148 x71))))) (not (= x40 (x97 x148 (x97 x148 x40))))) (not (= x94 (x97 x148 (x97 x148 x94))))) (not (= (x97 x148 (x97 x148 x148)) x148))) (and (or (or (not (= x94 (x97 x94 (x97 x94 x94)))) (or (or (not (= x54 (x97 x94 (x97 x94 x54)))) (not (= (x97 x94 (x97 x94 x71)) x71))) (not (= x40 (x97 x94 (x97 x94 x40)))))) (not (= (x97 x94 (x97 x94 x148)) x148))) (and (or (not (= x148 (x97 x40 (x97 x40 x148)))) (or (or (or (not (= (x97 x40 (x97 x40 x71)) x71)) (not (= (x97 x40 (x97 x40 x54)) x54))) (not (= x40 (x97 x40 (x97 x40 x40))))) (not (= x94 (x97 x40 (x97 x40 x94)))))) (and (or (or (or (not (= x40 (x97 x54 (x97 x54 x40)))) (or (not (= (x97 x54 (x97 x54 x71)) x71)) (not (= x54 (x97 x54 (x97 x54 x54)))))) (not (= x94 (x97 x54 (x97 x54 x94))))) (not (= x148 (x97 x54 (x97 x54 x148))))) (or (or (not (= (x97 x71 (x97 x71 x94)) x94)) (or (or (not (= (x97 x71 (x97 x71 x54)) x54)) (not (= x71 (x97 x71 (x97 x71 x71))))) (not (= x40 (x97 x71 (x97 x71 x40)))))) (not (= (x97 x71 (x97 x71 x148)) x148))))))))
(assert (and (not (= x94 x148)) (and (and (and (and (not (= x94 x54)) (and (and (and (and (not (= x54 x71)) (not (= x40 x71))) (not (= x71 x94))) (not (= x71 x148))) (not (= x40 x54)))) (not (= x148 x54))) (not (= x94 x40))) (not (= x40 x148)))))
(assert (let ((x82 (x97 x94 x94)) (x62 (x97 x148 x148)) (x158 (x97 x40 x40)) (x53 (x97 x54 x54)) (x46 (x97 x71 x71))) (or (and (not (= x148 x62)) (and (not (= x82 x148)) (and (and (not (= x46 x148)) (not (= x148 x53))) (not (= x148 x158))))) (or (or (and (not (= x40 x62)) (and (and (and (not (= x40 x46)) (not (= x53 x40))) (not (= x40 x158))) (not (= x40 x82)))) (or (and (not (= x62 x54)) (and (and (not (= x158 x54)) (and (not (= x53 x54)) (not (= x54 x46)))) (not (= x82 x54)))) (and (and (and (not (= x71 x158)) (and (not (= x71 x46)) (not (= x53 x71)))) (not (= x82 x71))) (not (= x71 x62))))) (and (not (= x94 x62)) (and (not (= x82 x94)) (and (not (= x94 x158)) (and (not (= x46 x94)) (not (= x94 x53))))))))))
(assert (or (and (not (= (x97 x148 (x97 x148 x148)) x148)) (and (and (not (= x40 (x97 x148 (x97 x148 x40)))) (and (not (= (x97 x148 (x97 x148 x54)) x54)) (not (= (x97 x148 (x97 x148 x71)) x71)))) (not (= x94 (x97 x148 (x97 x148 x94)))))) (or (or (or (and (not (= x148 (x97 x54 (x97 x54 x148)))) (and (and (not (= x40 (x97 x54 (x97 x54 x40)))) (and (not (= (x97 x54 (x97 x54 x54)) x54)) (not (= x71 (x97 x54 (x97 x54 x71)))))) (not (= x94 (x97 x54 (x97 x54 x94)))))) (and (and (not (= (x97 x71 (x97 x71 x94)) x94)) (and (and (not (= x54 (x97 x71 (x97 x71 x54)))) (not (= (x97 x71 (x97 x71 x71)) x71))) (not (= (x97 x71 (x97 x71 x40)) x40)))) (not (= (x97 x71 (x97 x71 x148)) x148)))) (and (not (= (x97 x40 (x97 x40 x148)) x148)) (and (and (not (= x40 (x97 x40 (x97 x40 x40)))) (and (not (= x54 (x97 x40 (x97 x40 x54)))) (not (= x71 (x97 x40 (x97 x40 x71)))))) (not (= x94 (x97 x40 (x97 x40 x94))))))) (and (and (not (= (x97 x94 (x97 x94 x94)) x94)) (and (and (not (= (x97 x94 (x97 x94 x71)) x71)) (not (= (x97 x94 (x97 x94 x54)) x54))) (not (= (x97 x94 (x97 x94 x40)) x40)))) (not (= (x97 x94 (x97 x94 x148)) x148))))))
(assert (let ((x118 (x97 x148 x148)) (x7 (x97 x54 x40)) (x119 (x97 x71 x54)) (x85 (x97 x54 x54)) (x158 (x97 x40 x71)) (x105 (x97 x71 x148)) (x123 (x97 x94 x54)) (x53 (x97 x54 x71)) (x101 (x97 x94 x40)) (x72 (x97 x94 x148)) (x145 (x97 x71 x40)) (x62 (x97 x148 x71)) (x35 (x97 x54 x148)) (x46 (x97 x71 x71)) (x30 (x97 x40 x148)) (x124 (x97 x40 x40)) (x52 (x97 x148 x40)) (x6 (x97 x71 x94)) (x110 (x97 x54 x94)) (x10 (x97 x40 x54)) (x82 (x97 x94 x71)) (x55 (x97 x94 x94)) (x20 (x97 x40 x94)) (x140 (x97 x148 x54)) (x34 (x97 x148 x94))) (and (and (and (and (and (and (and (and (not (= x140 x52)) (and (and (and (not (= x140 x62)) (not (= x62 x52))) (not (= x34 x62))) (not (= x62 x118)))) (not (= x140 x34))) (not (= x118 x140))) (not (= x34 x52))) (not (= x118 x52))) (not (= x118 x34))) (and (and (not (= x55 x72)) (and (not (= x101 x72)) (and (and (not (= x72 x123)) (and (not (= x55 x123)) (and (and (and (and (not (= x82 x101)) (not (= x82 x123))) (not (= x82 x55))) (not (= x72 x82))) (not (= x123 x101))))) (not (= x101 x55))))) (and (and (and (and (and (and (and (and (and (and (and (not (= x85 x53)) (not (= x7 x53))) (not (= x110 x53))) (not (= x35 x53))) (not (= x7 x85))) (not (= x85 x110))) (not (= x85 x35))) (not (= x110 x7))) (not (= x35 x7))) (not (= x35 x110))) (and (not (= x6 x105)) (and (and (not (= x6 x145)) (and (and (and (and (and (not (= x46 x6)) (and (not (= x119 x46)) (not (= x46 x145)))) (not (= x46 x105))) (not (= x119 x145))) (not (= x6 x119))) (not (= x119 x105)))) (not (= x145 x105))))) (and (and (and (not (= x20 x124)) (and (not (= x30 x10)) (and (and (not (= x124 x10)) (and (not (= x30 x158)) (and (not (= x158 x20)) (and (not (= x124 x158)) (not (= x10 x158)))))) (not (= x10 x20))))) (not (= x124 x30))) (not (= x30 x20)))))) (and (and (and (not (= x55 x34)) (and (and (and (and (not (= x110 x55)) (and (not (= x20 x110)) (and (and (and (not (= x110 x6)) (not (= x6 x20))) (not (= x55 x6))) (not (= x6 x34))))) (not (= x110 x34))) (not (= x20 x55))) (not (= x34 x20)))) (and (and (and (and (not (= x10 x140)) (and (not (= x123 x10)) (and (and (and (and (not (= x140 x119)) (and (and (not (= x119 x85)) (not (= x119 x10))) (not (= x123 x119)))) (not (= x85 x10))) (not (= x85 x123))) (not (= x140 x85))))) (not (= x140 x123))) (and (and (not (= x158 x62)) (and (and (and (and (not (= x158 x53)) (and (and (and (not (= x53 x46)) (not (= x158 x46))) (not (= x82 x46))) (not (= x46 x62)))) (not (= x82 x53))) (not (= x62 x53))) (not (= x82 x158)))) (not (= x82 x62)))) (and (not (= x52 x101)) (and (not (= x124 x52)) (and (not (= x124 x101)) (and (and (and (not (= x124 x7)) (and (and (not (= x145 x101)) (and (not (= x124 x145)) (not (= x7 x145)))) (not (= x145 x52)))) (not (= x101 x7))) (not (= x7 x52)))))))) (and (and (not (= x118 x30)) (and (and (and (and (not (= x35 x30)) (and (and (not (= x105 x72)) (and (not (= x105 x35)) (not (= x30 x105)))) (not (= x105 x118)))) (not (= x35 x72))) (not (= x118 x35))) (not (= x72 x30)))) (not (= x118 x72)))))))
(assert (or (= (x97 x148 x148) x148) (or (= (x97 x94 x94) x94) (or (= (x97 x40 x40) x40) (or (= x54 (x97 x54 x54)) (= (x97 x71 x71) x71))))))
(assert (let ((x7 (x97 x40 x54)) (x20 (x97 x94 x40)) (x10 (x97 x54 x40)) (x110 (x97 x94 x54)) (x34 (x97 x94 x148)) (x62 (x97 x71 x148)) (x140 (x97 x54 x148)) (x124 (x97 x40 x40)) (x105 (x97 x148 x71)) (x145 (x97 x40 x71)) (x82 (x97 x71 x94)) (x101 (x97 x40 x94)) (x55 (x97 x94 x94)) (x35 (x97 x148 x54)) (x6 (x97 x94 x71)) (x72 (x97 x148 x94)) (x52 (x97 x40 x148)) (x46 (x97 x71 x71)) (x119 (x97 x54 x71)) (x123 (x97 x54 x94)) (x30 (x97 x148 x40)) (x158 (x97 x71 x40)) (x85 (x97 x54 x54)) (x53 (x97 x71 x54)) (x118 (x97 x148 x148))) (and (and (and (and (and (and (and (and (or (or (or (= x46 x40) (or (= x46 x54) (= x46 x71))) (= x94 x46)) (= x46 x148)) (or (= x53 x148) (or (= x94 x53) (or (= x53 x40) (or (= x53 x71) (= x54 x53)))))) (or (or (or (= x158 x40) (or (= x158 x54) (= x71 x158))) (= x94 x158)) (= x148 x158))) (or (or (or (= x40 x82) (or (= x82 x71) (= x82 x54))) (= x82 x94)) (= x82 x148))) (or (= x62 x148) (or (or (= x40 x62) (or (= x54 x62) (= x71 x62))) (= x62 x94)))) (and (or (= x140 x148) (or (= x94 x140) (or (or (= x140 x54) (= x140 x71)) (= x40 x140)))) (and (and (or (or (= x94 x10) (or (= x40 x10) (or (= x10 x54) (= x71 x10)))) (= x148 x10)) (and (or (= x148 x85) (or (= x94 x85) (or (= x40 x85) (or (= x85 x71) (= x85 x54))))) (or (= x119 x148) (or (= x119 x94) (or (= x119 x40) (or (= x119 x71) (= x54 x119))))))) (or (or (= x94 x123) (or (= x40 x123) (or (= x54 x123) (= x71 x123)))) (= x123 x148))))) (and (or (or (or (= x40 x52) (or (= x71 x52) (= x52 x54))) (= x52 x94)) (= x148 x52)) (and (or (= x101 x148) (or (= x94 x101) (or (= x101 x40) (or (= x54 x101) (= x71 x101))))) (and (or (or (= x94 x124) (or (or (= x124 x54) (= x71 x124)) (= x124 x40))) (= x124 x148)) (and (or (or (or (or (= x7 x54) (= x7 x71)) (= x40 x7)) (= x7 x94)) (= x148 x7)) (or (= x148 x145) (or (or (= x145 x40) (or (= x54 x145) (= x145 x71))) (= x94 x145)))))))) (and (and (and (and (or (or (= x94 x110) (or (= x40 x110) (or (= x110 x71) (= x54 x110)))) (= x110 x148)) (or (or (= x94 x6) (or (= x6 x40) (or (= x6 x71) (= x6 x54)))) (= x148 x6))) (or (= x20 x148) (or (= x20 x94) (or (or (= x20 x54) (= x71 x20)) (= x40 x20))))) (or (= x55 x148) (or (or (or (= x55 x54) (= x55 x71)) (= x40 x55)) (= x55 x94)))) (or (= x34 x148) (or (or (= x40 x34) (or (= x34 x71) (= x54 x34))) (= x94 x34))))) (and (and (and (or (or (or (= x40 x30) (or (= x54 x30) (= x71 x30))) (= x94 x30)) (= x148 x30)) (and (or (or (= x94 x105) (or (= x105 x40) (or (= x105 x71) (= x105 x54)))) (= x148 x105)) (or (or (= x94 x35) (or (or (= x35 x71) (= x54 x35)) (= x40 x35))) (= x148 x35)))) (or (= x72 x148) (or (= x94 x72) (or (= x72 x40) (or (= x54 x72) (= x71 x72)))))) (or (= x118 x148) (or (or (or (= x54 x118) (= x118 x71)) (= x118 x40)) (= x94 x118)))))))
(assert (let ((x34 (x97 x54 x148)) (x124 (x97 x54 x94)) (x72 (x97 x94 x148)) (x85 (x97 x40 x54)) (x35 (x97 x40 x148)) (x101 (x97 x94 x40)) (x65 (x97 x71 x54)) (x118 (x97 x148 x148)) (x6 (x97 x94 x94)) (x141 (x97 x71 x71)) (x110 (x97 x148 x71)) (x62 (x97 x40 x71)) (x74 (x97 x71 x148)) (x53 (x97 x54 x71)) (x55 (x97 x148 x54)) (x105 (x97 x148 x40)) (x106 (x97 x71 x40)) (x123 (x97 x40 x40)) (x140 (x97 x94 x71)) (x52 (x97 x40 x94)) (x30 (x97 x148 x94)) (x7 (x97 x94 x54)) (x82 (x97 x54 x54)) (x146 (x97 x71 x94)) (x10 (x97 x54 x40))) (let ((x14 (not (= x10 x54))) (x27 (not (= x118 x148))) (x57 (not (= x53 x54))) (x131 (not (= x148 x30))) (x89 (not (= x40 x52))) (x150 (not (= x54 x124))) (x145 (not (= x146 x71))) (x44 (not (= x140 x94))) (x33 (not (= x6 x94))) (x136 (not (= x40 x85))) (x132 (not (= x55 x148))) (x46 (not (= x141 x71))) (x19 (not (= x101 x94))) (x45 (not (= x35 x40))) (x128 (not (= x40 x62))) (x20 (not (= x74 x71))) (x31 (not (= x54 x82))) (x47 (not (= x40 x123))) (x119 (not (= x106 x71))) (x81 (not (= x110 x148))) (x15 (not (= x34 x54))) (x5 (not (= x148 x105))) (x158 (not (= x65 x71))) (x102 (not (= x94 x7))) (x111 (not (= x94 x72)))) (or (or (and (and (or x27 (not (= x118 x94))) (and (or x111 (not (= x94 x30))) (and (and (or x15 (not (= x94 x55))) (or x20 (not (= x94 x110)))) (or (not (= x105 x94)) x45)))) (and (and (and (and (or x132 (not (= x94 x34))) (and (and (or x136 (not (= x10 x94))) (and (or x158 (not (= x94 x53))) (or x31 (not (= x82 x94))))) (or (not (= x124 x94)) x102))) (and (or (not (= x74 x94)) x81) (and (or (not (= x146 x94)) x44) (and (and (or (not (= x94 x65)) x57) (or (not (= x141 x94)) x46)) (or (not (= x94 x106)) x128))))) (and (and (or x19 (not (= x52 x94))) (and (and (or (not (= x94 x85)) x14) (or (not (= x94 x62)) x119)) (or x47 (not (= x94 x123))))) (or (not (= x94 x35)) x5))) (and (or x131 x111) (and (or x33 x33) (and (and (or x44 x145) (or x150 x102)) (or x19 x89)))))) (or (or (and (and (and (or x131 (not (= x72 x71))) (and (and (and (or (not (= x71 x140)) x145) (or (not (= x7 x71)) x150)) (or (not (= x101 x71)) x89)) (or (not (= x71 x6)) x33))) (and (and (and (and (or x145 x44) (and (and (or x46 x46) (or x158 x57)) (or x128 x119))) (or x81 x20)) (and (or (not (= x71 x34)) x132) (and (or x102 (not (= x124 x71))) (and (and (or (not (= x82 x71)) x31) (or (not (= x71 x53)) x158)) (or (not (= x71 x10)) x136))))) (and (or (not (= x71 x35)) x5) (and (or (not (= x52 x71)) x19) (and (and (or x119 (not (= x62 x71))) (or x14 (not (= x71 x85)))) (or x47 (not (= x71 x123)))))))) (and (or (not (= x71 x118)) x27) (and (and (or (not (= x105 x71)) x45) (and (or x15 (not (= x55 x71))) (or (not (= x71 x110)) x20))) (or (not (= x30 x71)) x111)))) (and (and (and (or x111 (not (= x54 x30))) (and (or (not (= x105 x54)) x45) (and (or (not (= x54 x55)) x15) (or x20 (not (= x110 x54)))))) (or (not (= x118 x54)) x27)) (and (and (or x131 (not (= x72 x54))) (and (or (not (= x6 x54)) x33) (and (and (or x145 (not (= x54 x140))) (or (not (= x54 x7)) x150)) (or (not (= x54 x101)) x89)))) (and (and (or (not (= x54 x35)) x5) (and (and (and (or x14 (not (= x54 x85))) (or (not (= x54 x62)) x119)) (or (not (= x123 x54)) x47)) (or x19 (not (= x54 x52))))) (and (and (and (or (not (= x54 x146)) x44) (and (and (or (not (= x141 x54)) x46) (or x57 (not (= x54 x65)))) (or x128 (not (= x54 x106))))) (or (not (= x54 x74)) x81)) (and (and (and (and (or x31 x31) (or x57 x158)) (or x136 x14)) (or x150 x102)) (or x15 x132))))))) (and (and (and (and (and (and (or x44 (not (= x40 x146))) (and (and (or (not (= x40 x65)) x57) (or x46 (not (= x40 x141)))) (or (not (= x106 x40)) x128))) (or (not (= x74 x40)) x81)) (and (and (or x102 (not (= x124 x40))) (and (or (not (= x40 x10)) x136) (and (or (not (= x40 x82)) x31) (or (not (= x40 x53)) x158)))) (or (not (= x34 x40)) x132))) (and (and (or x19 x89) (and (or x47 x47) (and (or x119 x128) (or x136 x14)))) (or x5 x45))) (and (and (and (or (not (= x101 x40)) x89) (and (or x145 (not (= x140 x40))) (or x150 (not (= x40 x7))))) (or (not (= x6 x40)) x33)) (or x131 (not (= x72 x40))))) (and (or x27 (not (= x118 x40))) (and (or (not (= x30 x40)) x111) (and (and (or x15 (not (= x40 x55))) (or x20 (not (= x40 x110)))) (or (not (= x105 x40)) x45))))))) (and (and (and (or (not (= x148 x72)) x131) (and (and (and (or (not (= x148 x140)) x145) (or (not (= x148 x7)) x150)) (or x89 (not (= x148 x101)))) (or x33 (not (= x148 x6))))) (and (and (and (or (not (= x74 x148)) x81) (and (or (not (= x146 x148)) x44) (and (or x128 (not (= x106 x148))) (and (or x57 (not (= x148 x65))) (or (not (= x148 x141)) x46))))) (and (or x132 (not (= x148 x34))) (and (or x102 (not (= x148 x124))) (and (or (not (= x10 x148)) x136) (and (or (not (= x148 x53)) x158) (or (not (= x82 x148)) x31)))))) (and (and (and (or x47 (not (= x123 x148))) (and (or (not (= x148 x85)) x14) (or x119 (not (= x148 x62))))) (or x19 (not (= x148 x52)))) (or (not (= x148 x35)) x5)))) (and (or x27 x27) (and (and (or x5 x45) (and (or x15 x132) (or x20 x81))) (or x131 x111))))))))
(assert (let ((x35 (x97 x54 x148)) (x65 (x97 x148 x54)) (x25 (x97 x148 x94)) (x22 (x97 x148 x148)) (x62 (x97 x71 x94)) (x119 (x97 x71 x148)) (x5 (x97 x40 x40)) (x123 (x97 x40 x71)) (x158 (x97 x71 x54)) (x34 (x97 x54 x40)) (x53 (x97 x71 x71)) (x105 (x97 x54 x94)) (x82 (x97 x71 x40)) (x140 (x97 x94 x71)) (x120 (x97 x94 x94)) (x41 (x97 x94 x148)) (x27 (x97 x94 x40)) (x129 (x97 x148 x40)) (x33 (x97 x40 x148)) (x10 (x97 x54 x71)) (x145 (x97 x148 x71)) (x141 (x97 x94 x54)) (x55 (x97 x54 x54)) (x89 (x97 x40 x94)) (x118 (x97 x40 x54))) (let ((x74 (= x94 x55)) (x69 (= x148 x89)) (x122 (= x94 x5)) (x31 (= x148 x158)) (x6 (= x158 x71)) (x92 (= x145 x148)) (x29 (= x35 x40)) (x15 (= x71 x34)) (x91 (= x123 x40)) (x138 (= x141 x71)) (x113 (= x35 x94)) (x38 (= x54 x22)) (x133 (= x71 x41)) (x26 (= x33 x40)) (x51 (= x140 x54)) (x63 (= x94 x34)) (x77 (= x94 x89)) (x116 (= x94 x129)) (x149 (= x148 x120)) (x114 (= x40 x41)) (x151 (= x54 x120)) (x111 (= x54 x5)) (x109 (= x148 x105)) (x134 (= x94 x33)) (x45 (= x34 x54)) (x43 (= x89 x54)) (x17 (= x54 x25)) (x104 (= x54 x35)) (x90 (= x105 x40)) (x72 (= x55 x54)) (x48 (= x62 x71)) (x152 (= x33 x71)) (x128 (= x40 x55)) (x125 (= x105 x94)) (x68 (= x141 x94)) (x18 (= x119 x94)) (x70 (= x118 x148)) (x3 (= x71 x27)) (x102 (= x82 x71)) (x96 (= x54 x129)) (x76 (= x89 x71)) (x61 (= x41 x54)) (x46 (= x71 x53)) (x84 (= x65 x54)) (x100 (= x41 x148)) (x139 (= x119 x54)) (x1 (= x71 x22)) (x136 (= x71 x123)) (x127 (= x94 x118)) (x39 (= x65 x148)) (x115 (= x34 x148)) (x12 (= x54 x33)) (x86 (= x40 x82)) (x78 (= x5 x148)) (x49 (= x40 x27)) (x56 (= x120 x40)) (x23 (= x94 x120)) (x52 (= x10 x71)) (x73 (= x94 x62)) (x28 (= x89 x40)) (x110 (= x55 x71)) (x103 (= x129 x71)) (x79 (= x34 x40)) (x95 (= x145 x54)) (x150 (= x118 x71)) (x106 (= x158 x40)) (x4 (= x71 x120)) (x67 (= x141 x40)) (x7 (= x53 x40)) (x11 (= x35 x148)) (x13 (= x82 x148)) (x137 (= x94 x22)) (x124 (= x94 x53)) (x83 (= x62 x40)) (x121 (= x71 x145)) (x107 (= x140 x94)) (x144 (= x40 x65)) (x42 (= x25 x71)) (x30 (= x54 x158)) (x108 (= x71 x105)) (x24 (= x141 x54)) (x36 (= x94 x27)) (x57 (= x40 x10)) (x59 (= x40 x140)) (x32 (= x65 x94)) (x80 (= x27 x148)) (x101 (= x148 x53)) (x117 (= x71 x65)) (x142 (= x148 x140)) (x58 (= x25 x40)) (x143 (= x148 x33)) (x98 (= x94 x145)) (x19 (= x54 x118)) (x9 (= x40 x119)) (x47 (= x123 x54)) (x132 (= x5 x71)) (x147 (= x119 x148)) (x131 (= x82 x54)) (x37 (= x123 x94)) (x85 (= x54 x53)) (x126 (= x35 x71)) (x66 (= x82 x94)) (x81 (= x148 x10)) (x21 (= x71 x119)) (x75 (= x5 x40)) (x99 (= x148 x141)) (x60 (= x54 x27)) (x155 (= x62 x54)) (x93 (= x25 x94)) (x135 (= x148 x22)) (x130 (= x148 x25)) (x154 (= x22 x40)) (x146 (= x94 x10)) (x157 (= x40 x145)) (x156 (= x40 x129)) (x2 (= x94 x41)) (x20 (= x54 x10)) (x8 (= x118 x40)) (x14 (= x55 x148)) (x112 (= x148 x129)) (x64 (= x123 x148)) (x16 (= x71 x140)) (x87 (= x62 x148)) (x50 (= x105 x54)) (x44 (= x158 x94))) (and (and (and (and (and (and (and (or (or (or x37 (or x146 x124)) x107) x98) (or (or (or x66 (or x44 x124)) x73) x18)) (and (and (or (or x83 (or (or x106 x7) x86)) x9) (or (or x59 (or (or x7 x57) x91)) x157)) (and (and (or x139 (or x155 (or (or x85 x30) x131))) (or (or (or (or x85 x20) x47) x51) x95)) (and (or (or x16 (or x136 (or x52 x46))) x121) (or (or x48 (or (or x6 x46) x102)) x21))))) (and (or (or (or x13 (or x101 x31)) x87) x147) (or (or x142 (or (or x81 x101) x64)) x92))) (and (and (or (or x109 (or x115 (or x14 x81))) x11) (or (or (or (or x31 x14) x70) x99) x39)) (and (and (and (or (or x67 (or (or x128 x106) x8)) x144) (or (or (or (or x128 x57) x79) x90) x29)) (and (and (or (or (or x150 (or x6 x110)) x138) x117) (or (or (or x15 (or x52 x110)) x108) x126)) (and (or x104 (or x50 (or x45 (or x72 x20)))) (or x84 (or (or x19 (or x72 x30)) x24))))) (and (or x113 (or x125 (or (or x146 x74) x63))) (or x32 (or (or (or x74 x44) x127) x68)))))) (and (and (or (or (or x78 (or x115 x13)) x80) x112) (or (or x69 (or (or x70 x64) x78)) x143)) (and (and (and (and (or (or x60 (or (or x131 x45) x111)) x96) (or (or (or x111 (or x47 x19)) x43) x12)) (and (or x103 (or (or (or x102 x15) x132) x3)) (or (or (or (or x150 x136) x132) x76) x152))) (and (or x26 (or (or (or x8 x91) x75) x28)) (or (or x49 (or (or x86 x79) x75)) x156))) (and (or (or (or (or x66 x63) x122) x36) x116) (or (or (or x122 (or x37 x127)) x77) x134))))) (and (and (or (or (or x80 (or x99 x142)) x149) x100) (or x130 (or x149 (or (or x87 x109) x69)))) (and (and (and (or x114 (or x56 (or x49 (or x67 x59)))) (or (or (or x28 (or x83 x90)) x56) x58)) (and (and (or x61 (or x151 (or (or x51 x24) x60))) (or (or x151 (or x43 (or x50 x155))) x17)) (and (or x133 (or x4 (or x3 (or x16 x138)))) (or x42 (or (or x76 (or x48 x108)) x4))))) (and (or (or (or x36 (or x68 x107)) x23) x2) (or x93 (or x23 (or x77 (or x73 x125)))))))) (and (and (or x135 (or (or (or x11 x147) x143) x100)) (or x135 (or x130 (or (or x92 x39) x112)))) (and (and (or (or (or (or x98 x32) x116) x93) x137) (or x137 (or x2 (or (or x18 x113) x134)))) (and (and (or x154 (or (or (or x29 x9) x26) x114)) (or (or (or (or x144 x157) x156) x58) x154)) (and (and (or x1 (or (or (or x21 x126) x152) x133)) (or x1 (or (or x103 (or x117 x121)) x42))) (and (or (or (or (or x104 x139) x12) x61) x38) (or (or x17 (or x96 (or x95 x84))) x38))))))))))
(assert (or (and (and (and (not (= (x97 (x97 x40 x148) x148) x40)) (and (not (= x71 (x97 (x97 x71 x148) x148))) (not (= x54 (x97 (x97 x54 x148) x148))))) (not (= (x97 (x97 x94 x148) x148) x94))) (not (= (x97 (x97 x148 x148) x148) x148))) (or (or (or (and (not (= x148 (x97 (x97 x148 x71) x71))) (and (and (and (not (= x71 (x97 (x97 x71 x71) x71))) (not (= (x97 (x97 x54 x71) x71) x54))) (not (= (x97 (x97 x40 x71) x71) x40))) (not (= (x97 (x97 x94 x71) x71) x94)))) (and (not (= x148 (x97 (x97 x148 x54) x54))) (and (not (= x94 (x97 (x97 x94 x54) x54))) (and (and (not (= (x97 (x97 x71 x54) x54) x71)) (not (= x54 (x97 (x97 x54 x54) x54)))) (not (= x40 (x97 (x97 x40 x54) x54))))))) (and (not (= (x97 (x97 x148 x40) x40) x148)) (and (not (= x94 (x97 (x97 x94 x40) x40))) (and (not (= x40 (x97 (x97 x40 x40) x40))) (and (not (= x71 (x97 (x97 x71 x40) x40))) (not (= x54 (x97 (x97 x54 x40) x40)))))))) (and (and (not (= x94 (x97 (x97 x94 x94) x94))) (and (and (not (= x54 (x97 (x97 x54 x94) x94))) (not (= (x97 (x97 x71 x94) x94) x71))) (not (= x40 (x97 (x97 x40 x94) x94))))) (not (= (x97 (x97 x148 x94) x94) x148))))))
(assert (or (and (not (= x148 (x97 (x97 x148 x148) x148))) (and (and (and (not (= (x97 (x97 x148 x71) x148) x71)) (not (= x54 (x97 (x97 x148 x54) x148)))) (not (= x40 (x97 (x97 x148 x40) x148)))) (not (= x94 (x97 (x97 x148 x94) x148))))) (or (and (and (not (= (x97 (x97 x94 x94) x94) x94)) (and (and (not (= (x97 (x97 x94 x71) x94) x71)) (not (= x54 (x97 (x97 x94 x54) x94)))) (not (= x40 (x97 (x97 x94 x40) x94))))) (not (= (x97 (x97 x94 x148) x94) x148))) (or (or (and (and (not (= x94 (x97 (x97 x54 x94) x54))) (and (not (= (x97 (x97 x54 x40) x54) x40)) (and (not (= x54 (x97 (x97 x54 x54) x54))) (not (= (x97 (x97 x54 x71) x54) x71))))) (not (= x148 (x97 (x97 x54 x148) x54)))) (and (not (= x148 (x97 (x97 x71 x148) x71))) (and (and (and (not (= (x97 (x97 x71 x71) x71) x71)) (not (= x54 (x97 (x97 x71 x54) x71)))) (not (= x40 (x97 (x97 x71 x40) x71)))) (not (= (x97 (x97 x71 x94) x71) x94))))) (and (not (= x148 (x97 (x97 x40 x148) x40))) (and (not (= x94 (x97 (x97 x40 x94) x40))) (and (not (= (x97 (x97 x40 x40) x40) x40)) (and (not (= (x97 (x97 x40 x71) x40) x71)) (not (= x54 (x97 (x97 x40 x54) x40)))))))))))
(check-sat)
(exit)
